NAME : BHR101B.1959523.tour
COMMENT : Cost = 0_1959523
COMMENT : Found by LKH [Keld Helsgaun] Tue Apr 25 16:53:54 2017
TYPE : TOUR
DIMENSION : 123
TOUR_SECTION
1
53
89
8
47
61
90
110
37
48
20
9
119
29
79
35
36
78
111
73
13
77
80
55
105
43
16
41
113
46
83
87
18
108
63
12
91
67
71
109
93
3
62
85
102
64
65
50
49
106
15
39
44
59
115
28
32
19
11
33
103
6
84
17
97
107
66
82
51
122
22
74
42
27
116
96
99
100
95
98
14
104
34
72
10
4
69
25
81
117
30
54
123
76
23
57
75
121
70
31
52
21
2
114
40
24
68
56
5
26
118
60
45
86
94
112
7
120
88
58
38
92
101
-1
EOF
